unsat
(forall ((A (_ BitVec 17))
         (B (_ BitVec 17))
         (C (_ BitVec 1))
         (D (_ BitVec 17))
         (E (_ BitVec 24))
         (F (_ BitVec 13))
         (G (_ BitVec 1))
         (H (_ BitVec 1))
         (I (_ BitVec 32))
         (J (_ BitVec 32))
         (K (_ BitVec 42))
         (L (_ BitVec 1))
         (M (_ BitVec 17))
         (N (_ BitVec 17))
         (O (_ BitVec 14))
         (P (_ BitVec 1))
         (Q (_ BitVec 13))
         (R (_ BitVec 51))
         (S (_ BitVec 17))
         (T (_ BitVec 14))
         (U (_ BitVec 10))
         (V (_ BitVec 17))
         (W (_ BitVec 1))
         (X (_ BitVec 1))
         (Y (_ BitVec 24))
         (Z (_ BitVec 1))
         (A1 (_ BitVec 1))
         (B1 (_ BitVec 1))
         (C1 (_ BitVec 1))
         (D1 (_ BitVec 19))
         (E1 (_ BitVec 17))
         (F1 (_ BitVec 1))
         (G1 (_ BitVec 14))
         (H1 (_ BitVec 17))
         (I1 (_ BitVec 17))
         (J1 (_ BitVec 31))
         (K1 (_ BitVec 31))
         (L1 (_ BitVec 17))
         (M1 (_ BitVec 17))
         (N1 (_ BitVec 1))
         (O1 (_ BitVec 17))
         (P1 (_ BitVec 14))
         (Q1 (_ BitVec 17))
         (R1 (_ BitVec 1))
         (S1 (_ BitVec 1))
         (T1 (_ BitVec 3))
         (U1 (_ BitVec 8))
         (V1 (_ BitVec 19))
         (W1 (_ BitVec 19))
         (X1 (_ BitVec 17))
         (Y1 (_ BitVec 24))
         (Z1 (_ BitVec 1))
         (A2 (_ BitVec 32))
         (B2 (_ BitVec 24))
         (C2 (_ BitVec 1)))
  (! (let ((a!1 (= (concat ((_ extract 12 12) F) F)
                   (bvmul #b11111111111111 (concat ((_ extract 12 12) Q) Q))))
           (a!3 (= (concat (bvadd ((_ extract 1 0) W1) ((_ extract 3 2) V1))
                           ((_ extract 1 0) V1))
                   ((_ extract 3 0) H1)))
           (a!4 ((_ extract 14 2)
                  (bvadd (concat #b000 ((_ extract 18 2) V1)) (concat #b0 W1))))
           (a!5 ((_ extract 19 15)
                  (bvadd (concat #b000 ((_ extract 18 2) V1)) (concat #b0 W1))))
           (a!6 (= ((_ extract 26 13)
                     (bvadd ((_ extract 30 4) J1) (concat #x00 D1)))
                   #b00000000000000)))
     (let ((a!2 (or (not ((_ bit2bool 29) K))
                    ((_ bit2bool 2) T1)
                    (not ((_ bit2bool 0) T1))
                    (= ((_ extract 1 1) T1) #b1)
                    (not (= F ((_ extract 26 14) K)))
                    (not a!1)))
           (a!7 (and (= ((_ extract 3 0) J1) ((_ extract 3 0) S))
                     (= (bvadd ((_ extract 16 4) J1) ((_ extract 12 0) D1))
                        ((_ extract 16 4) S))
                     a!6)))
     (let ((a!8 (and (or (not ((_ bit2bool 0) L)) (not (= S1 #b0)))
                     (or (not (= X #b1)) (not (= T1 #b001)))
                     (or (= T1 #b011) (not (= C1 #b1)) (= X #b0))
                     (or (not (= H #b1))
                         (not (= C1 #b1))
                         (= ((_ extract 1 1) T1) #b1))
                     (or (= P #b0)
                         (not ((_ bit2bool 0) A1))
                         (not (= H #b1))
                         (not (= C1 #b1)))
                     (or (not (= H #b1))
                         (not (= X #b1))
                         (= ((_ extract 1 1) T1) #b1))
                     (or (= P #b0)
                         (not (= R1 #b1))
                         ((_ bit2bool 0) X)
                         (not (= Z1 #b0))
                         (not ((_ bit2bool 0) A1)))
                     a!2
                     (or (not (= T #b00000000000001)) a!3)
                     (or (not (= T #b00000000000001))
                         (= a!4 ((_ extract 16 4) H1)))
                     (not ((_ bit2bool 0) U))
                     (= a!5 #b00000)
                     (not ((_ bit2bool 1) U))
                     (or a!7 (not (= O #b00000000000001)))
                     (or (not (= G1 #b00000000000001))
                         (= K1 (concat #b00000000000000 I1))))))
       (= (INV!slice!1 A
                       B
                       C
                       D
                       E
                       F
                       G
                       H
                       I
                       J
                       K
                       L
                       M
                       N
                       O
                       P
                       Q
                       R
                       S
                       T
                       U
                       V
                       W
                       X
                       Y
                       Z
                       A1
                       B1
                       C1
                       D1
                       E1
                       F1
                       G1
                       H1
                       I1
                       J1
                       K1
                       L1
                       M1
                       N1
                       O1
                       P1
                       Q1
                       R1
                       S1
                       T1
                       U1
                       V1
                       W1
                       X1
                       Y1
                       Z1
                       A2
                       B2
                       C2)
          a!8))))
     :weight 0))
